Problem:    
Rows:       192
Columns:    65 (48 integer, 48 binary)
Non-zeros:  584
Status:     INTEGER OPTIMAL
Objective:  value = 4.637446 (MINimum)

   No.   Row name        Activity     Lower bound   Upper bound
------ ------------    ------------- ------------- -------------
     1 r.5                   1004.64             0               
     2 r.6                  -998.691      -999.365               
     3 r.7                   4.63745             0               
     4 r.8                   1.30862      -998.614               
     5 r.9                   1004.64             0               
     6 r.10                 -999.361       -999.51               
     7 r.11                  4.63745             0               
     8 r.12                  1.30862      -998.791               
     9 r.13                  4.63745             0               
    10 r.14                  1.30862      -999.588               
    11 r.15                  1004.64             0               
    12 r.16                 -998.691      -999.216               
    13 r.17                  1004.64             0               
    14 r.18                 -999.851      -999.919               
    15 r.19                  4.63745             0               
    16 r.20                 -999.779      -999.847               
    17 r.21                  4.63745             0               
    18 r.22                 0.673448      -999.734               
    19 r.23                  1004.64             0               
    20 r.24                 -999.476      -999.544               
    21 r.25                  1004.64             0               
    22 r.26                 -999.932      -999.932               
    23 r.27                  4.63745             0               
    24 r.28                   0.0682       -999.87               
    25 r.29                  4.63745             0               
    26 r.30                  4.63745        -999.5               
    27 r.31                  1004.64             0               
    28 r.32                 -995.363      -999.001               
    29 r.33                  1004.64             0               
    30 r.34                 -995.363      -996.671               
    31 r.35                  4.63745             0               
    32 r.36                  4.63745      -989.613               
    33 r.37                        1             1             = 
    34 r.38                        1             1             = 
    35 r.39                        1             1             = 
    36 r.40                        1             1             = 
    37 r.41                        1             1             = 
    38 r.42                        1             1             = 
    39 r.43                        1             1             = 
    40 r.44                        1             1             = 
    41 r.45                        2             2               
    42 r.46                       -2         -1001               
    43 r.47                -0.669326       -999.51               
    44 r.48                     1000             2               
    45 r.49                    -1000         -1001               
    46 r.50                     2000      -998.791               
    47 r.51                     1001             2               
    48 r.52                    -1001         -1001               
    49 r.53                     2000      -999.588               
    50 r.54                     1001             2               
    51 r.55                    -1001         -1001               
    52 r.56                     2000      -999.216               
    53 r.57                  -998.84      -999.365               
    54 r.58                  1.15961      -998.614               
    55 r.59                  1.08719      -999.365               
    56 r.60                  1001.09      -998.614               
    57 r.61                 -999.365      -999.365               
    58 r.62                 0.635167      -998.614               
    59 r.63                 -999.216      -999.365               
    60 r.64                 0.784476      -998.614               
    61 r.65                  3.32883        -999.5               
    62 r.66                 -996.671      -999.001               
    63 r.67                  3.32883        -999.5               
    64 r.68                 -996.671      -999.001               
    65 r.69                 -996.671      -996.671               
    66 r.70                  3.32883      -989.613               
    67 r.71                 -996.671      -996.671               
    68 r.72                  3.32883      -989.613               
    69 r.73                        2             2               
    70 r.74                       -2         -1001               
    71 r.75                 0.669326      0.635167               
    72 r.76                     1000             2               
    73 r.77                    -1000         -1001               
    74 r.78                     2000       1.38627               
    75 r.79                     1001             2               
    76 r.80                    -1001         -1001               
    77 r.81                  2000.67      -999.588               
    78 r.82                     1001             2               
    79 r.83                    -1001         -1001               
    80 r.84                     2000      -999.216               
    81 r.85                  -999.51       -999.51               
    82 r.86                  1.15961      -998.791               
    83 r.87                 0.417863       -999.51               
    84 r.88                  1001.09      -998.791               
    85 r.89                     1001             2               
    86 r.90                    -1001         -1001               
    87 r.91                  2000.03      -999.734               
    88 r.92                     1001             2               
    89 r.93                    -1001         -1001               
    90 r.94                  1999.22      -999.544               
    91 r.95                 -999.429       -999.51               
    92 r.96                  1.24041      -998.791               
    93 r.97                 -999.429       -999.51               
    94 r.98                  1.24041      -998.791               
    95 r.99                  3.99816        -999.5               
    96 r.100                -996.002      -999.001               
    97 r.101                 3.32883        -999.5               
    98 r.102                -996.671      -999.001               
    99 r.103                -996.002      -996.671               
   100 r.104                 3.99816      -989.613               
   101 r.105                -996.671      -996.671               
   102 r.106                 3.32883      -989.613               
   103 r.107                    1001             2               
   104 r.108                   -1001         -1001               
   105 r.109                    2000      0.635167               
   106 r.110                    1001             2               
   107 r.111                   -1001         -1001               
   108 r.112                    2000       1.38627               
   109 r.113                    1001             2               
   110 r.114                   -1001         -1001               
   111 r.115                 1999.33      0.490289               
   112 r.116                    1001             2               
   113 r.117                   -1001         -1001               
   114 r.118                    2000       1.20926               
   115 r.119                    1001             2               
   116 r.120                   -1001         -1001               
   117 r.121                 1998.84      -999.919               
   118 r.122                    1001             2               
   119 r.123                   -1001         -1001               
   120 r.124                 998.913      -999.847               
   121 r.125                    1000             2               
   122 r.126                   -1000         -1001               
   123 r.127                 1999.36      -999.734               
   124 r.128                       2             2               
   125 r.129                      -2         -1001               
   126 r.130               -0.784476      -999.544               
   127 r.131                 1.24041      -999.588               
   128 r.132                 -998.76      -999.216               
   129 r.133                 1.24041      -999.588               
   130 r.134                 -998.76      -999.216               
   131 r.135                 3.32883        -999.5               
   132 r.136                -996.671      -999.001               
   133 r.137                 3.32883        -999.5               
   134 r.138                -996.671      -999.001               
   135 r.139                -996.671      -996.671               
   136 r.140                 3.32883      -989.613               
   137 r.141                -996.671      -996.671               
   138 r.142                 3.32883      -989.613               
   139 r.143                    1001             2               
   140 r.144                   -1001         -1001               
   141 r.145                 2001.16      0.411967               
   142 r.146                    1001             2               
   143 r.147                   -1001         -1001               
   144 r.148                 3001.09      0.784476               
   145 r.149                    1001             2               
   146 r.150                   -1001         -1001               
   147 r.151                 2000.52      -999.734               
   148 r.152                    1001             2               
   149 r.153                   -1001         -1001               
   150 r.154                  3000.3      -999.544               
   151 r.155                -999.919      -999.919               
   152 r.156                -999.847      -999.847               
   153 r.157                -999.919      -999.919               
   154 r.158                -999.847      -999.847               
   155 r.159                    1001             2               
   156 r.160                   -1001         -1001               
   157 r.161                 1999.97      0.490289               
   158 r.162                    1001             2               
   159 r.163                   -1001         -1001               
   160 r.164                 2000.78       1.20926               
   161 r.165                    1000             2               
   162 r.166                   -1000         -1001               
   163 r.167                 2000.64      0.411967               
   164 r.168                       2             2               
   165 r.169                      -2         -1001               
   166 r.170                0.784476      0.784476               
   167 r.171                    1001             2               
   168 r.172                   -1001         -1001               
   169 r.173                 1999.48        0.0808               
   170 r.174                    1001             2               
   171 r.175                   -1001         -1001               
   172 r.176                 999.697      0.153226               
   173 r.177                0.605248      -999.734               
   174 r.178                -999.544      -999.544               
   175 r.179                0.605248      -999.734               
   176 r.180                -999.544      -999.544               
   177 r.181                   3.964        -999.5               
   178 r.182                -996.036      -999.001               
   179 r.183                 4.11331        -999.5               
   180 r.184                -995.887      -999.001               
   181 r.185                    1001             2               
   182 r.186                   -1001         -1001               
   183 r.187                    2000      -996.671               
   184 r.188                    1001             2               
   185 r.189                   -1001         -1001               
   186 r.190                    2000      -989.613               
   187 r.191                    1001             2               
   188 r.192                   -1001         -1001               
   189 r.193                    2000      0.499689               
   190 r.194                    1001             2               
   191 r.195                   -1001         -1001               
   192 r.196                    2000      0.998882               

   No. Column name       Activity     Lower bound   Upper bound
------ ------------    ------------- ------------- -------------
     1 tt                    4.63745             0               
     2 s_1_1        *              1             0             1 
     3 t_1_1                 3.32883             0               
     4 s_1_7        *              0             0             1 
     5 s_1_8        *              1             0             1 
     6 s_2_1        *              0             0             1 
     7 t_2_1                 3.32883             0               
     8 s_2_7        *              1             0             1 
     9 s_2_8        *              0             0             1 
    10 s_1_2        *              1             0             1 
    11 t_1_2                 3.99816             0               
    12 s_2_2        *              0             0             1 
    13 t_2_2                 3.32883             0               
    14 s_1_3        *              0             0             1 
    15 t_1_3                 3.32883             0               
    16 s_2_3        *              1             0             1 
    17 t_2_3                 3.32883             0               
    18 s_1_4        *              1             0             1 
    19 t_1_4                 4.48845             0               
    20 s_2_4        *              0             0             1 
    21 t_2_4                 1004.42             0               
    22 s_1_5        *              0             0             1 
    23 t_1_5                   3.964             0               
    24 s_2_5        *              1             0             1 
    25 t_2_5                 4.11331             0               
    26 s_1_6        *              1             0             1 
    27 t_1_6                 4.56925             0               
    28 s_2_6        *              0             0             1 
    29 t_2_6                 4.56925             0               
    30 t_1_7                       0             0               
    31 t_2_7                       0             0               
    32 t_1_8                       0             0               
    33 t_2_8                       0             0               
    34 r_1_1_2      *              0             0             1 
    35 u_1_1_2      *              0             0             1 
    36 r_2_1_2      *              1             0             1 
    37 u_2_1_2      *              0             0             1 
    38 r_1_1_3      *              1             0             1 
    39 u_1_1_3      *              0             0             1 
    40 r_2_1_3      *              1             0             1 
    41 u_2_1_3      *              0             0             1 
    42 r_1_2_3      *              1             0             1 
    43 u_1_2_3      *              0             0             1 
    44 r_2_2_3      *              1             0             1 
    45 u_2_2_3      *              0             0             1 
    46 r_1_2_5      *              1             0             1 
    47 u_1_2_5      *              0             0             1 
    48 r_2_2_5      *              1             0             1 
    49 u_2_2_5      *              0             0             1 
    50 r_1_3_4      *              1             0             1 
    51 u_1_3_4      *              0             0             1 
    52 r_2_3_4      *              1             0             1 
    53 u_2_3_4      *              0             0             1 
    54 r_1_3_5      *              1             0             1 
    55 u_1_3_5      *              0             0             1 
    56 r_2_3_5      *              0             0             1 
    57 u_2_3_5      *              0             0             1 
    58 r_1_4_5      *              1             0             1 
    59 u_1_4_5      *              0             0             1 
    60 r_2_4_5      *              1             0             1 
    61 u_2_4_5      *              0             0             1 
    62 r_1_7_8      *              1             0             1 
    63 u_1_7_8      *              0             0             1 
    64 r_2_7_8      *              1             0             1 
    65 u_2_7_8      *              0             0             1 

Integer feasibility conditions:

KKT.PE: max.abs.err = 4.55e-13 on row 144
        max.rel.err = 7.57e-17 on row 144
        High quality

KKT.PB: max.abs.err = 2.22e-16 on row 166
        max.rel.err = 1.24e-16 on row 166
        High quality

End of output
